* #variable= 50 #constraint= 50 #product= 1464 sizeproduct= 2928
****************************************
* begin normalizer comments
* category= OPT-SMALLINT-NLC
* end normalizer comments
****************************************
min: +1 x1 +1 x2 +1 x3 +1 x4 +1 x5 +1 x6 +1 x7 +1 x8 +1 x9 +1 x10 +1 x11 +1 x12 +1 x13 +1 x14 +1 x15 +1 x16 +1 x17 +1 x18 +1 x19 +1 x20 +1 x21 +1 x22 +1 x23 +1 x24 +1 x25 +1 x26 +1 x27 +1 x28 +1 x29 +1 x30 +1 x31 +1 x32 +1 x33 +1 x34 +1 x35 +1 x36 +1 x37 +1 x38 +1 x39 +1 x40 +1 x41 +1 x42 +1 x43 +1 x44 +1 x45 +1 x46 +1 x47 +1 x48 +1 x49 +1 x50 ;
+1 ~x1 x26 +1 ~x1 x16 +1 ~x1 x11 +1 ~x1 x23 +1 ~x1 x27 +1 ~x1 x33 +1 ~x1 x21 +1 ~x1 x50 +1 ~x1 x24 +1 ~x1 x32 +1 ~x1 x49 +1 ~x1 x29 +1 ~x1 x37 +1 ~x1 x15 +1 ~x1 x6 +1 ~x1 x30 +1 ~x1 x34 +1 ~x1 x3 +1 ~x1 x18 +1 ~x1 x47 +1 ~x1 x28 +1 ~x1 x35 +1 ~x1 x9 +1 ~x1 x12 +1 ~x1 x41 +1 ~x1 x2 +1 ~x1 x4 +1 ~x1 x5 +1 ~x1 x8 +1 ~x1 x10 +1 ~x1 x13 +1 ~x1 x20 +1 ~x1 x38 +1 ~x1 x48 +1 x1 >= 1 ;
+1 x1 ~x2 +1 ~x2 x22 +1 ~x2 x11 +1 ~x2 x16 +1 ~x2 x4 +1 ~x2 x38 +1 ~x2 x14 +1 ~x2 x36 +1 ~x2 x24 +1 ~x2 x8 +1 ~x2 x44 +1 ~x2 x23 +1 ~x2 x39 +1 ~x2 x28 +1 ~x2 x40 +1 ~x2 x43 +1 ~x2 x17 +1 ~x2 x34 +1 ~x2 x19 +1 ~x2 x41 +1 ~x2 x45 +1 ~x2 x12 +1 ~x2 x25 +1 ~x2 x29 +1 ~x2 x49 +1 ~x2 x3 +1 ~x2 x5 +1 ~x2 x9 +1 ~x2 x13 +1 ~x2 x26 +1 ~x2 x31 +1 ~x2 x35 +1 ~x2 x42 +1 ~x2 x46 +1 ~x2 x50 +1 x2 >= 1 ;
+1 x1 ~x3 +1 x2 ~x3 +1 ~x3 x34 +1 ~x3 x30 +1 ~x3 x14 +1 ~x3 x28 +1 ~x3 x45 +1 ~x3 x37 +1 ~x3 x35 +1 ~x3 x42 +1 ~x3 x40 +1 ~x3 x9 +1 ~x3 x19 +1 ~x3 x29 +1 ~x3 x44 +1 ~x3 x47 +1 ~x3 x27 +1 ~x3 x15 +1 ~x3 x20 +1 ~x3 x7 +1 ~x3 x21 +1 ~x3 x10 +1 ~x3 x13 +1 ~x3 x25 +1 ~x3 x4 +1 ~x3 x8 +1 ~x3 x11 +1 ~x3 x16 +1 ~x3 x18 +1 ~x3 x26 +1 ~x3 x39 +1 x3 >= 1 ;
+1 x1 ~x4 +1 x2 ~x4 +1 x3 ~x4 +1 ~x4 x29 +1 ~x4 x47 +1 ~x4 x48 +1 ~x4 x17 +1 ~x4 x33 +1 ~x4 x8 +1 ~x4 x40 +1 ~x4 x43 +1 ~x4 x27 +1 ~x4 x18 +1 ~x4 x45 +1 ~x4 x22 +1 ~x4 x15 +1 ~x4 x49 +1 ~x4 x31 +1 ~x4 x46 +1 ~x4 x37 +1 ~x4 x38 +1 ~x4 x28 +1 ~x4 x42 +1 ~x4 x16 +1 ~x4 x19 +1 ~x4 x7 +1 ~x4 x10 +1 ~x4 x21 +1 ~x4 x25 +1 ~x4 x32 +1 ~x4 x39 +1 ~x4 x41 +1 x4 >= 1 ;
+1 x1 ~x5 +1 x2 ~x5 +1 ~x5 x14 +1 ~x5 x35 +1 ~x5 x22 +1 ~x5 x42 +1 ~x5 x34 +1 ~x5 x8 +1 ~x5 x36 +1 ~x5 x6 +1 ~x5 x16 +1 ~x5 x26 +1 ~x5 x48 +1 ~x5 x44 +1 ~x5 x45 +1 ~x5 x15 +1 ~x5 x11 +1 ~x5 x20 +1 ~x5 x19 +1 ~x5 x28 +1 ~x5 x17 +1 ~x5 x7 +1 ~x5 x29 +1 ~x5 x27 +1 ~x5 x49 +1 ~x5 x9 +1 ~x5 x12 +1 ~x5 x23 +1 ~x5 x24 +1 ~x5 x30 +1 x5 >= 1 ;
+1 x1 ~x6 +1 x5 ~x6 +1 ~x6 x11 +1 ~x6 x26 +1 ~x6 x47 +1 ~x6 x8 +1 ~x6 x19 +1 ~x6 x18 +1 ~x6 x41 +1 ~x6 x9 +1 ~x6 x46 +1 ~x6 x39 +1 ~x6 x42 +1 ~x6 x7 +1 ~x6 x27 +1 ~x6 x36 +1 ~x6 x12 +1 ~x6 x38 +1 ~x6 x24 +1 ~x6 x37 +1 ~x6 x45 +1 ~x6 x49 +1 ~x6 x22 +1 ~x6 x23 +1 ~x6 x34 +1 ~x6 x10 +1 ~x6 x13 +1 ~x6 x28 +1 ~x6 x32 +1 ~x6 x33 +1 ~x6 x43 +1 x6 >= 1 ;
+1 x3 ~x7 +1 x4 ~x7 +1 x5 ~x7 +1 x6 ~x7 +1 ~x7 x24 +1 ~x7 x34 +1 ~x7 x11 +1 ~x7 x41 +1 ~x7 x35 +1 ~x7 x18 +1 ~x7 x31 +1 ~x7 x40 +1 ~x7 x36 +1 ~x7 x9 +1 ~x7 x25 +1 ~x7 x20 +1 ~x7 x28 +1 ~x7 x46 +1 ~x7 x33 +1 ~x7 x14 +1 ~x7 x42 +1 ~x7 x15 +1 ~x7 x17 +1 ~x7 x45 +1 ~x7 x29 +1 ~x7 x12 +1 ~x7 x19 +1 ~x7 x38 +1 ~x7 x39 +1 ~x7 x44 +1 x7 >= 1 ;
+1 x1 ~x8 +1 x2 ~x8 +1 x3 ~x8 +1 x4 ~x8 +1 x5 ~x8 +1 x6 ~x8 +1 ~x8 x17 +1 ~x8 x36 +1 ~x8 x40 +1 ~x8 x44 +1 ~x8 x32 +1 ~x8 x23 +1 ~x8 x15 +1 ~x8 x9 +1 ~x8 x50 +1 ~x8 x24 +1 ~x8 x39 +1 ~x8 x46 +1 ~x8 x16 +1 ~x8 x18 +1 ~x8 x49 +1 ~x8 x10 +1 ~x8 x34 +1 ~x8 x47 +1 ~x8 x14 +1 ~x8 x11 +1 ~x8 x20 +1 ~x8 x25 +1 ~x8 x26 +1 ~x8 x27 +1 ~x8 x30 +1 ~x8 x31 +1 x8 >= 1 ;
+1 x1 ~x9 +1 x2 ~x9 +1 x3 ~x9 +1 x5 ~x9 +1 x6 ~x9 +1 x7 ~x9 +1 x8 ~x9 +1 ~x9 x33 +1 ~x9 x34 +1 ~x9 x20 +1 ~x9 x38 +1 ~x9 x28 +1 ~x9 x40 +1 ~x9 x50 +1 ~x9 x17 +1 ~x9 x49 +1 ~x9 x46 +1 ~x9 x44 +1 ~x9 x37 +1 ~x9 x15 +1 ~x9 x13 +1 ~x9 x32 +1 ~x9 x16 +1 ~x9 x22 +1 ~x9 x29 +1 ~x9 x10 +1 ~x9 x12 +1 ~x9 x14 +1 ~x9 x19 +1 ~x9 x21 +1 ~x9 x23 +1 ~x9 x26 +1 ~x9 x27 +1 ~x9 x45 +1 x9 >= 1 ;
+1 x1 ~x10 +1 x3 ~x10 +1 x4 ~x10 +1 x6 ~x10 +1 x8 ~x10 +1 x9 ~x10 +1 ~x10 x46 +1 ~x10 x30 +1 ~x10 x31 +1 ~x10 x35 +1 ~x10 x47 +1 ~x10 x36 +1 ~x10 x32 +1 ~x10 x39 +1 ~x10 x26 +1 ~x10 x29 +1 ~x10 x37 +1 ~x10 x21 +1 ~x10 x15 +1 ~x10 x33 +1 ~x10 x20 +1 ~x10 x24 +1 ~x10 x48 +1 ~x10 x28 +1 ~x10 x16 +1 ~x10 x11 +1 ~x10 x12 +1 ~x10 x14 +1 ~x10 x17 +1 ~x10 x25 +1 ~x10 x34 +1 ~x10 x42 +1 ~x10 x50 +1 x10 >= 1 ;
+1 x1 ~x11 +1 x2 ~x11 +1 x3 ~x11 +1 x5 ~x11 +1 x6 ~x11 +1 x7 ~x11 +1 x8 ~x11 +1 x10 ~x11 +1 ~x11 x18 +1 ~x11 x49 +1 ~x11 x46 +1 ~x11 x29 +1 ~x11 x27 +1 ~x11 x35 +1 ~x11 x42 +1 ~x11 x37 +1 ~x11 x33 +1 ~x11 x47 +1 ~x11 x19 +1 ~x11 x12 +1 ~x11 x44 +1 ~x11 x13 +1 ~x11 x48 +1 ~x11 x20 +1 ~x11 x24 +1 ~x11 x15 +1 ~x11 x23 +1 ~x11 x25 +1 x11 >= 1 ;
+1 x1 ~x12 +1 x2 ~x12 +1 x5 ~x12 +1 x6 ~x12 +1 x7 ~x12 +1 x9 ~x12 +1 x10 ~x12 +1 x11 ~x12 +1 ~x12 x40 +1 ~x12 x39 +1 ~x12 x42 +1 ~x12 x22 +1 ~x12 x33 +1 ~x12 x44 +1 ~x12 x24 +1 ~x12 x30 +1 ~x12 x23 +1 ~x12 x25 +1 ~x12 x27 +1 ~x12 x21 +1 ~x12 x41 +1 ~x12 x48 +1 ~x12 x50 +1 ~x12 x46 +1 ~x12 x45 +1 ~x12 x13 +1 ~x12 x16 +1 ~x12 x17 +1 ~x12 x18 +1 ~x12 x32 +1 ~x12 x35 +1 ~x12 x37 +1 ~x12 x43 +1 x12 >= 1 ;
+1 x1 ~x13 +1 x2 ~x13 +1 x3 ~x13 +1 x6 ~x13 +1 x9 ~x13 +1 x11 ~x13 +1 x12 ~x13 +1 ~x13 x18 +1 ~x13 x39 +1 ~x13 x15 +1 ~x13 x45 +1 ~x13 x26 +1 ~x13 x50 +1 ~x13 x37 +1 ~x13 x22 +1 ~x13 x34 +1 ~x13 x30 +1 ~x13 x43 +1 ~x13 x49 +1 ~x13 x33 +1 ~x13 x46 +1 ~x13 x48 +1 ~x13 x47 +1 ~x13 x16 +1 ~x13 x36 +1 ~x13 x14 +1 ~x13 x20 +1 ~x13 x21 +1 ~x13 x28 +1 ~x13 x32 +1 ~x13 x35 +1 ~x13 x41 +1 x13 >= 1 ;
+1 x2 ~x14 +1 x3 ~x14 +1 x5 ~x14 +1 x7 ~x14 +1 x8 ~x14 +1 x9 ~x14 +1 x10 ~x14 +1 x13 ~x14 +1 ~x14 x20 +1 ~x14 x24 +1 ~x14 x32 +1 ~x14 x47 +1 ~x14 x33 +1 ~x14 x34 +1 ~x14 x45 +1 ~x14 x18 +1 ~x14 x39 +1 ~x14 x26 +1 ~x14 x38 +1 ~x14 x15 +1 ~x14 x19 +1 ~x14 x27 +1 ~x14 x22 +1 ~x14 x46 +1 ~x14 x23 +1 ~x14 x17 +1 ~x14 x28 +1 ~x14 x29 +1 ~x14 x31 +1 ~x14 x35 +1 ~x14 x41 +1 ~x14 x43 +1 ~x14 x48 +1 x14 >= 1 ;
+1 x1 ~x15 +1 x3 ~x15 +1 x4 ~x15 +1 x5 ~x15 +1 x7 ~x15 +1 x8 ~x15 +1 x9 ~x15 +1 x10 ~x15 +1 x11 ~x15 +1 x13 ~x15 +1 x14 ~x15 +1 ~x15 x22 +1 ~x15 x45 +1 ~x15 x21 +1 ~x15 x18 +1 ~x15 x50 +1 ~x15 x37 +1 ~x15 x19 +1 ~x15 x35 +1 ~x15 x17 +1 ~x15 x33 +1 ~x15 x29 +1 ~x15 x36 +1 ~x15 x20 +1 ~x15 x40 +1 ~x15 x16 +1 ~x15 x25 +1 ~x15 x26 +1 ~x15 x27 +1 ~x15 x31 +1 ~x15 x41 +1 ~x15 x42 +1 ~x15 x43 +1 ~x15 x46 +1 ~x15 x48 +1 x15 >= 1 ;
+1 x1 ~x16 +1 x2 ~x16 +1 x3 ~x16 +1 x4 ~x16 +1 x5 ~x16 +1 x8 ~x16 +1 x9 ~x16 +1 x10 ~x16 +1 x12 ~x16 +1 x13 ~x16 +1 x15 ~x16 +1 ~x16 x21 +1 ~x16 x23 +1 ~x16 x42 +1 ~x16 x44 +1 ~x16 x32 +1 ~x16 x22 +1 ~x16 x29 +1 ~x16 x37 +1 ~x16 x43 +1 ~x16 x24 +1 ~x16 x38 +1 ~x16 x19 +1 ~x16 x18 +1 ~x16 x26 +1 ~x16 x17 +1 ~x16 x25 +1 ~x16 x30 +1 ~x16 x39 +1 ~x16 x41 +1 ~x16 x48 +1 ~x16 x50 +1 x16 >= 1 ;
+1 x2 ~x17 +1 x4 ~x17 +1 x5 ~x17 +1 x7 ~x17 +1 x8 ~x17 +1 x9 ~x17 +1 x10 ~x17 +1 x12 ~x17 +1 x14 ~x17 +1 x15 ~x17 +1 x16 ~x17 +1 ~x17 x37 +1 ~x17 x45 +1 ~x17 x39 +1 ~x17 x32 +1 ~x17 x30 +1 ~x17 x27 +1 ~x17 x50 +1 ~x17 x44 +1 ~x17 x48 +1 ~x17 x42 +1 ~x17 x20 +1 ~x17 x26 +1 ~x17 x40 +1 ~x17 x43 +1 ~x17 x19 +1 ~x17 x22 +1 ~x17 x25 +1 ~x17 x36 +1 x17 >= 1 ;
+1 x1 ~x18 +1 x3 ~x18 +1 x4 ~x18 +1 x6 ~x18 +1 x7 ~x18 +1 x8 ~x18 +1 x11 ~x18 +1 x12 ~x18 +1 x13 ~x18 +1 x14 ~x18 +1 x15 ~x18 +1 x16 ~x18 +1 ~x18 x45 +1 ~x18 x29 +1 ~x18 x40 +1 ~x18 x44 +1 ~x18 x22 +1 ~x18 x38 +1 ~x18 x26 +1 ~x18 x42 +1 ~x18 x34 +1 ~x18 x25 +1 ~x18 x24 +1 ~x18 x39 +1 ~x18 x31 +1 ~x18 x23 +1 ~x18 x32 +1 ~x18 x36 +1 ~x18 x43 +1 ~x18 x47 +1 ~x18 x49 +1 x18 >= 1 ;
+1 x2 ~x19 +1 x3 ~x19 +1 x4 ~x19 +1 x5 ~x19 +1 x6 ~x19 +1 x7 ~x19 +1 x9 ~x19 +1 x11 ~x19 +1 x14 ~x19 +1 x15 ~x19 +1 x16 ~x19 +1 x17 ~x19 +1 ~x19 x21 +1 ~x19 x39 +1 ~x19 x40 +1 ~x19 x20 +1 ~x19 x50 +1 ~x19 x36 +1 ~x19 x49 +1 ~x19 x41 +1 ~x19 x31 +1 ~x19 x22 +1 ~x19 x28 +1 ~x19 x25 +1 ~x19 x35 +1 ~x19 x24 +1 ~x19 x29 +1 ~x19 x32 +1 ~x19 x37 +1 ~x19 x48 +1 x19 >= 1 ;
+1 x1 ~x20 +1 x3 ~x20 +1 x5 ~x20 +1 x7 ~x20 +1 x8 ~x20 +1 x9 ~x20 +1 x10 ~x20 +1 x11 ~x20 +1 x13 ~x20 +1 x14 ~x20 +1 x15 ~x20 +1 x17 ~x20 +1 x19 ~x20 +1 ~x20 x44 +1 ~x20 x40 +1 ~x20 x42 +1 ~x20 x49 +1 ~x20 x22 +1 ~x20 x43 +1 ~x20 x39 +1 ~x20 x25 +1 ~x20 x47 +1 ~x20 x30 +1 ~x20 x37 +1 ~x20 x45 +1 ~x20 x26 +1 ~x20 x28 +1 ~x20 x34 +1 ~x20 x36 +1 ~x20 x38 +1 ~x20 x50 +1 x20 >= 1 ;
+1 x1 ~x21 +1 x3 ~x21 +1 x4 ~x21 +1 x9 ~x21 +1 x10 ~x21 +1 x12 ~x21 +1 x13 ~x21 +1 x15 ~x21 +1 x16 ~x21 +1 x19 ~x21 +1 ~x21 x29 +1 ~x21 x33 +1 ~x21 x39 +1 ~x21 x35 +1 ~x21 x32 +1 ~x21 x26 +1 ~x21 x42 +1 ~x21 x30 +1 ~x21 x48 +1 ~x21 x40 +1 ~x21 x23 +1 ~x21 x44 +1 ~x21 x47 +1 ~x21 x49 +1 ~x21 x46 +1 ~x21 x22 +1 ~x21 x24 +1 ~x21 x27 +1 ~x21 x41 +1 x21 >= 1 ;
+1 x2 ~x22 +1 x4 ~x22 +1 x5 ~x22 +1 x6 ~x22 +1 x9 ~x22 +1 x12 ~x22 +1 x13 ~x22 +1 x14 ~x22 +1 x15 ~x22 +1 x16 ~x22 +1 x17 ~x22 +1 x18 ~x22 +1 x19 ~x22 +1 x20 ~x22 +1 x21 ~x22 +1 ~x22 x40 +1 ~x22 x41 +1 ~x22 x48 +1 ~x22 x24 +1 ~x22 x31 +1 ~x22 x34 +1 ~x22 x44 +1 ~x22 x49 +1 ~x22 x47 +1 ~x22 x30 +1 ~x22 x25 +1 ~x22 x26 +1 ~x22 x28 +1 ~x22 x36 +1 ~x22 x38 +1 ~x22 x42 +1 ~x22 x43 +1 ~x22 x45 +1 x22 >= 1 ;
+1 x1 ~x23 +1 x2 ~x23 +1 x5 ~x23 +1 x6 ~x23 +1 x8 ~x23 +1 x9 ~x23 +1 x11 ~x23 +1 x12 ~x23 +1 x14 ~x23 +1 x16 ~x23 +1 x18 ~x23 +1 x21 ~x23 +1 ~x23 x24 +1 ~x23 x26 +1 ~x23 x38 +1 ~x23 x34 +1 ~x23 x50 +1 ~x23 x43 +1 ~x23 x33 +1 ~x23 x37 +1 ~x23 x46 +1 ~x23 x27 +1 ~x23 x31 +1 ~x23 x47 +1 ~x23 x40 +1 ~x23 x49 +1 x23 >= 1 ;
+1 x1 ~x24 +1 x2 ~x24 +1 x5 ~x24 +1 x6 ~x24 +1 x7 ~x24 +1 x8 ~x24 +1 x10 ~x24 +1 x11 ~x24 +1 x12 ~x24 +1 x14 ~x24 +1 x16 ~x24 +1 x18 ~x24 +1 x19 ~x24 +1 x21 ~x24 +1 x22 ~x24 +1 x23 ~x24 +1 ~x24 x29 +1 ~x24 x47 +1 ~x24 x37 +1 ~x24 x50 +1 ~x24 x44 +1 ~x24 x39 +1 ~x24 x26 +1 ~x24 x41 +1 ~x24 x27 +1 ~x24 x28 +1 ~x24 x33 +1 ~x24 x45 +1 x24 >= 1 ;
+1 x2 ~x25 +1 x3 ~x25 +1 x4 ~x25 +1 x7 ~x25 +1 x8 ~x25 +1 x10 ~x25 +1 x11 ~x25 +1 x12 ~x25 +1 x15 ~x25 +1 x16 ~x25 +1 x17 ~x25 +1 x18 ~x25 +1 x19 ~x25 +1 x20 ~x25 +1 x22 ~x25 +1 ~x25 x31 +1 ~x25 x33 +1 ~x25 x44 +1 ~x25 x43 +1 ~x25 x32 +1 ~x25 x26 +1 ~x25 x50 +1 ~x25 x29 +1 ~x25 x28 +1 ~x25 x47 +1 ~x25 x27 +1 ~x25 x35 +1 ~x25 x37 +1 ~x25 x40 +1 x25 >= 1 ;
+1 x1 ~x26 +1 x2 ~x26 +1 x3 ~x26 +1 x5 ~x26 +1 x6 ~x26 +1 x8 ~x26 +1 x9 ~x26 +1 x10 ~x26 +1 x13 ~x26 +1 x14 ~x26 +1 x15 ~x26 +1 x16 ~x26 +1 x17 ~x26 +1 x18 ~x26 +1 x20 ~x26 +1 x21 ~x26 +1 x22 ~x26 +1 x23 ~x26 +1 x24 ~x26 +1 x25 ~x26 +1 ~x26 x27 +1 ~x26 x44 +1 ~x26 x37 +1 ~x26 x48 +1 ~x26 x31 +1 ~x26 x28 +1 ~x26 x30 +1 ~x26 x33 +1 ~x26 x34 +1 ~x26 x36 +1 ~x26 x43 +1 ~x26 x45 +1 x26 >= 1 ;
+1 x1 ~x27 +1 x3 ~x27 +1 x4 ~x27 +1 x5 ~x27 +1 x6 ~x27 +1 x8 ~x27 +1 x9 ~x27 +1 x11 ~x27 +1 x12 ~x27 +1 x14 ~x27 +1 x15 ~x27 +1 x17 ~x27 +1 x21 ~x27 +1 x23 ~x27 +1 x24 ~x27 +1 x25 ~x27 +1 x26 ~x27 +1 ~x27 x34 +1 ~x27 x29 +1 ~x27 x33 +1 ~x27 x36 +1 ~x27 x28 +1 ~x27 x41 +1 ~x27 x49 +1 ~x27 x30 +1 ~x27 x31 +1 ~x27 x40 +1 ~x27 x42 +1 ~x27 x46 +1 x27 >= 1 ;
+1 x1 ~x28 +1 x2 ~x28 +1 x3 ~x28 +1 x4 ~x28 +1 x5 ~x28 +1 x6 ~x28 +1 x7 ~x28 +1 x9 ~x28 +1 x10 ~x28 +1 x13 ~x28 +1 x14 ~x28 +1 x19 ~x28 +1 x20 ~x28 +1 x22 ~x28 +1 x24 ~x28 +1 x25 ~x28 +1 x26 ~x28 +1 x27 ~x28 +1 ~x28 x42 +1 ~x28 x37 +1 ~x28 x40 +1 ~x28 x50 +1 ~x28 x45 +1 ~x28 x39 +1 ~x28 x47 +1 ~x28 x30 +1 ~x28 x31 +1 ~x28 x33 +1 ~x28 x38 +1 ~x28 x46 +1 x28 >= 1 ;
+1 x1 ~x29 +1 x2 ~x29 +1 x3 ~x29 +1 x4 ~x29 +1 x5 ~x29 +1 x7 ~x29 +1 x9 ~x29 +1 x10 ~x29 +1 x11 ~x29 +1 x14 ~x29 +1 x15 ~x29 +1 x16 ~x29 +1 x18 ~x29 +1 x19 ~x29 +1 x21 ~x29 +1 x24 ~x29 +1 x25 ~x29 +1 x27 ~x29 +1 ~x29 x35 +1 ~x29 x33 +1 ~x29 x44 +1 ~x29 x30 +1 ~x29 x43 +1 ~x29 x50 +1 ~x29 x41 +1 ~x29 x31 +1 ~x29 x46 +1 ~x29 x47 +1 ~x29 x49 +1 x29 >= 1 ;
+1 x1 ~x30 +1 x3 ~x30 +1 x5 ~x30 +1 x8 ~x30 +1 x10 ~x30 +1 x12 ~x30 +1 x13 ~x30 +1 x16 ~x30 +1 x17 ~x30 +1 x20 ~x30 +1 x21 ~x30 +1 x22 ~x30 +1 x26 ~x30 +1 x27 ~x30 +1 x28 ~x30 +1 x29 ~x30 +1 ~x30 x49 +1 ~x30 x41 +1 ~x30 x35 +1 ~x30 x37 +1 ~x30 x39 +1 ~x30 x38 +1 ~x30 x36 +1 ~x30 x44 +1 ~x30 x48 +1 ~x30 x33 +1 ~x30 x40 +1 ~x30 x50 +1 x30 >= 1 ;
+1 x2 ~x31 +1 x4 ~x31 +1 x7 ~x31 +1 x8 ~x31 +1 x10 ~x31 +1 x14 ~x31 +1 x15 ~x31 +1 x18 ~x31 +1 x19 ~x31 +1 x22 ~x31 +1 x23 ~x31 +1 x25 ~x31 +1 x26 ~x31 +1 x27 ~x31 +1 x28 ~x31 +1 x29 ~x31 +1 ~x31 x34 +1 ~x31 x49 +1 ~x31 x43 +1 ~x31 x41 +1 ~x31 x36 +1 ~x31 x45 +1 ~x31 x48 +1 ~x31 x37 +1 ~x31 x44 +1 ~x31 x32 +1 ~x31 x35 +1 ~x31 x39 +1 ~x31 x42 +1 x31 >= 1 ;
+1 x1 ~x32 +1 x4 ~x32 +1 x6 ~x32 +1 x8 ~x32 +1 x9 ~x32 +1 x10 ~x32 +1 x12 ~x32 +1 x13 ~x32 +1 x14 ~x32 +1 x16 ~x32 +1 x17 ~x32 +1 x18 ~x32 +1 x19 ~x32 +1 x21 ~x32 +1 x25 ~x32 +1 x31 ~x32 +1 ~x32 x47 +1 ~x32 x33 +1 ~x32 x43 +1 ~x32 x39 +1 ~x32 x42 +1 ~x32 x50 +1 ~x32 x46 +1 ~x32 x36 +1 ~x32 x35 +1 ~x32 x41 +1 ~x32 x45 +1 x32 >= 1 ;
+1 x1 ~x33 +1 x4 ~x33 +1 x6 ~x33 +1 x7 ~x33 +1 x9 ~x33 +1 x10 ~x33 +1 x11 ~x33 +1 x12 ~x33 +1 x13 ~x33 +1 x14 ~x33 +1 x15 ~x33 +1 x21 ~x33 +1 x23 ~x33 +1 x24 ~x33 +1 x25 ~x33 +1 x26 ~x33 +1 x27 ~x33 +1 x28 ~x33 +1 x29 ~x33 +1 x30 ~x33 +1 x32 ~x33 +1 ~x33 x46 +1 ~x33 x37 +1 ~x33 x35 +1 ~x33 x47 +1 ~x33 x36 +1 ~x33 x40 +1 ~x33 x41 +1 ~x33 x45 +1 x33 >= 1 ;
+1 x1 ~x34 +1 x2 ~x34 +1 x3 ~x34 +1 x5 ~x34 +1 x6 ~x34 +1 x7 ~x34 +1 x8 ~x34 +1 x9 ~x34 +1 x10 ~x34 +1 x13 ~x34 +1 x14 ~x34 +1 x18 ~x34 +1 x20 ~x34 +1 x22 ~x34 +1 x23 ~x34 +1 x26 ~x34 +1 x27 ~x34 +1 x31 ~x34 +1 ~x34 x44 +1 ~x34 x47 +1 ~x34 x38 +1 ~x34 x48 +1 ~x34 x50 +1 ~x34 x46 +1 ~x34 x37 +1 ~x34 x35 +1 ~x34 x40 +1 x34 >= 1 ;
+1 x1 ~x35 +1 x2 ~x35 +1 x3 ~x35 +1 x5 ~x35 +1 x7 ~x35 +1 x10 ~x35 +1 x11 ~x35 +1 x12 ~x35 +1 x13 ~x35 +1 x14 ~x35 +1 x15 ~x35 +1 x19 ~x35 +1 x21 ~x35 +1 x25 ~x35 +1 x29 ~x35 +1 x30 ~x35 +1 x31 ~x35 +1 x32 ~x35 +1 x33 ~x35 +1 x34 ~x35 +1 ~x35 x43 +1 ~x35 x37 +1 ~x35 x42 +1 ~x35 x49 +1 ~x35 x36 +1 ~x35 x38 +1 ~x35 x40 +1 ~x35 x44 +1 ~x35 x46 +1 x35 >= 1 ;
+1 x2 ~x36 +1 x5 ~x36 +1 x6 ~x36 +1 x7 ~x36 +1 x8 ~x36 +1 x10 ~x36 +1 x13 ~x36 +1 x15 ~x36 +1 x17 ~x36 +1 x18 ~x36 +1 x19 ~x36 +1 x20 ~x36 +1 x22 ~x36 +1 x26 ~x36 +1 x27 ~x36 +1 x30 ~x36 +1 x31 ~x36 +1 x32 ~x36 +1 x33 ~x36 +1 x35 ~x36 +1 ~x36 x49 +1 ~x36 x44 +1 ~x36 x38 +1 ~x36 x48 +1 ~x36 x40 +1 ~x36 x37 +1 x36 >= 1 ;
+1 x1 ~x37 +1 x3 ~x37 +1 x4 ~x37 +1 x6 ~x37 +1 x9 ~x37 +1 x10 ~x37 +1 x11 ~x37 +1 x12 ~x37 +1 x13 ~x37 +1 x15 ~x37 +1 x16 ~x37 +1 x17 ~x37 +1 x19 ~x37 +1 x20 ~x37 +1 x23 ~x37 +1 x24 ~x37 +1 x25 ~x37 +1 x26 ~x37 +1 x28 ~x37 +1 x30 ~x37 +1 x31 ~x37 +1 x33 ~x37 +1 x34 ~x37 +1 x35 ~x37 +1 x36 ~x37 +1 ~x37 x39 +1 ~x37 x40 +1 ~x37 x43 +1 ~x37 x47 +1 x37 >= 1 ;
+1 x1 ~x38 +1 x2 ~x38 +1 x4 ~x38 +1 x6 ~x38 +1 x7 ~x38 +1 x9 ~x38 +1 x14 ~x38 +1 x16 ~x38 +1 x18 ~x38 +1 x20 ~x38 +1 x22 ~x38 +1 x23 ~x38 +1 x28 ~x38 +1 x30 ~x38 +1 x34 ~x38 +1 x35 ~x38 +1 x36 ~x38 +1 ~x38 x50 +1 ~x38 x41 +1 ~x38 x40 +1 ~x38 x39 +1 ~x38 x49 +1 ~x38 x46 +1 ~x38 x48 +1 ~x38 x45 +1 ~x38 x47 +1 x38 >= 1 ;
+1 x2 ~x39 +1 x3 ~x39 +1 x4 ~x39 +1 x6 ~x39 +1 x7 ~x39 +1 x8 ~x39 +1 x10 ~x39 +1 x12 ~x39 +1 x13 ~x39 +1 x14 ~x39 +1 x16 ~x39 +1 x17 ~x39 +1 x18 ~x39 +1 x19 ~x39 +1 x20 ~x39 +1 x21 ~x39 +1 x24 ~x39 +1 x28 ~x39 +1 x30 ~x39 +1 x31 ~x39 +1 x32 ~x39 +1 x37 ~x39 +1 x38 ~x39 +1 ~x39 x50 +1 ~x39 x43 +1 ~x39 x42 +1 ~x39 x45 +1 x39 >= 1 ;
+1 x2 ~x40 +1 x3 ~x40 +1 x4 ~x40 +1 x7 ~x40 +1 x8 ~x40 +1 x9 ~x40 +1 x12 ~x40 +1 x15 ~x40 +1 x17 ~x40 +1 x18 ~x40 +1 x19 ~x40 +1 x20 ~x40 +1 x21 ~x40 +1 x22 ~x40 +1 x23 ~x40 +1 x25 ~x40 +1 x27 ~x40 +1 x28 ~x40 +1 x30 ~x40 +1 x33 ~x40 +1 x34 ~x40 +1 x35 ~x40 +1 x36 ~x40 +1 x37 ~x40 +1 x38 ~x40 +1 ~x40 x41 +1 ~x40 x42 +1 x40 >= 1 ;
+1 x1 ~x41 +1 x2 ~x41 +1 x4 ~x41 +1 x6 ~x41 +1 x7 ~x41 +1 x12 ~x41 +1 x13 ~x41 +1 x14 ~x41 +1 x15 ~x41 +1 x16 ~x41 +1 x19 ~x41 +1 x21 ~x41 +1 x22 ~x41 +1 x24 ~x41 +1 x27 ~x41 +1 x29 ~x41 +1 x30 ~x41 +1 x31 ~x41 +1 x32 ~x41 +1 x33 ~x41 +1 x38 ~x41 +1 x40 ~x41 +1 ~x41 x49 +1 ~x41 x46 +1 ~x41 x43 +1 ~x41 x44 +1 ~x41 x48 +1 x41 >= 1 ;
+1 x2 ~x42 +1 x3 ~x42 +1 x4 ~x42 +1 x5 ~x42 +1 x6 ~x42 +1 x7 ~x42 +1 x10 ~x42 +1 x11 ~x42 +1 x12 ~x42 +1 x15 ~x42 +1 x16 ~x42 +1 x17 ~x42 +1 x18 ~x42 +1 x20 ~x42 +1 x21 ~x42 +1 x22 ~x42 +1 x27 ~x42 +1 x28 ~x42 +1 x31 ~x42 +1 x32 ~x42 +1 x35 ~x42 +1 x39 ~x42 +1 x40 ~x42 +1 ~x42 x47 +1 ~x42 x43 +1 ~x42 x49 +1 x42 >= 1 ;
+1 x2 ~x43 +1 x4 ~x43 +1 x6 ~x43 +1 x12 ~x43 +1 x13 ~x43 +1 x14 ~x43 +1 x15 ~x43 +1 x16 ~x43 +1 x17 ~x43 +1 x18 ~x43 +1 x20 ~x43 +1 x22 ~x43 +1 x23 ~x43 +1 x25 ~x43 +1 x26 ~x43 +1 x29 ~x43 +1 x31 ~x43 +1 x32 ~x43 +1 x35 ~x43 +1 x37 ~x43 +1 x39 ~x43 +1 x41 ~x43 +1 x42 ~x43 +1 ~x43 x48 +1 ~x43 x44 +1 x43 >= 1 ;
+1 x2 ~x44 +1 x3 ~x44 +1 x5 ~x44 +1 x7 ~x44 +1 x8 ~x44 +1 x9 ~x44 +1 x11 ~x44 +1 x12 ~x44 +1 x16 ~x44 +1 x17 ~x44 +1 x18 ~x44 +1 x20 ~x44 +1 x21 ~x44 +1 x22 ~x44 +1 x24 ~x44 +1 x25 ~x44 +1 x26 ~x44 +1 x29 ~x44 +1 x30 ~x44 +1 x31 ~x44 +1 x34 ~x44 +1 x35 ~x44 +1 x36 ~x44 +1 x41 ~x44 +1 x43 ~x44 +1 ~x44 x46 +1 ~x44 x47 +1 x44 >= 1 ;
+1 x2 ~x45 +1 x3 ~x45 +1 x4 ~x45 +1 x5 ~x45 +1 x6 ~x45 +1 x7 ~x45 +1 x9 ~x45 +1 x12 ~x45 +1 x13 ~x45 +1 x14 ~x45 +1 x15 ~x45 +1 x17 ~x45 +1 x18 ~x45 +1 x20 ~x45 +1 x22 ~x45 +1 x24 ~x45 +1 x26 ~x45 +1 x28 ~x45 +1 x31 ~x45 +1 x32 ~x45 +1 x33 ~x45 +1 x38 ~x45 +1 x39 ~x45 +1 ~x45 x48 +1 ~x45 x49 +1 ~x45 x46 +1 x45 >= 1 ;
+1 x2 ~x46 +1 x4 ~x46 +1 x6 ~x46 +1 x7 ~x46 +1 x8 ~x46 +1 x9 ~x46 +1 x10 ~x46 +1 x11 ~x46 +1 x12 ~x46 +1 x13 ~x46 +1 x14 ~x46 +1 x15 ~x46 +1 x21 ~x46 +1 x23 ~x46 +1 x27 ~x46 +1 x28 ~x46 +1 x29 ~x46 +1 x32 ~x46 +1 x33 ~x46 +1 x34 ~x46 +1 x35 ~x46 +1 x38 ~x46 +1 x41 ~x46 +1 x44 ~x46 +1 x45 ~x46 +1 ~x46 x50 +1 x46 >= 1 ;
+1 x1 ~x47 +1 x3 ~x47 +1 x4 ~x47 +1 x6 ~x47 +1 x8 ~x47 +1 x10 ~x47 +1 x11 ~x47 +1 x13 ~x47 +1 x14 ~x47 +1 x18 ~x47 +1 x20 ~x47 +1 x21 ~x47 +1 x22 ~x47 +1 x23 ~x47 +1 x24 ~x47 +1 x25 ~x47 +1 x28 ~x47 +1 x29 ~x47 +1 x32 ~x47 +1 x33 ~x47 +1 x34 ~x47 +1 x37 ~x47 +1 x38 ~x47 +1 x42 ~x47 +1 x44 ~x47 +1 ~x47 x48 +1 x47 >= 1 ;
+1 x1 ~x48 +1 x4 ~x48 +1 x5 ~x48 +1 x10 ~x48 +1 x11 ~x48 +1 x12 ~x48 +1 x13 ~x48 +1 x14 ~x48 +1 x15 ~x48 +1 x16 ~x48 +1 x17 ~x48 +1 x19 ~x48 +1 x21 ~x48 +1 x22 ~x48 +1 x26 ~x48 +1 x30 ~x48 +1 x31 ~x48 +1 x34 ~x48 +1 x36 ~x48 +1 x38 ~x48 +1 x41 ~x48 +1 x43 ~x48 +1 x45 ~x48 +1 x47 ~x48 +1 ~x48 x50 +1 x48 >= 1 ;
+1 x1 ~x49 +1 x2 ~x49 +1 x4 ~x49 +1 x5 ~x49 +1 x6 ~x49 +1 x8 ~x49 +1 x9 ~x49 +1 x11 ~x49 +1 x13 ~x49 +1 x18 ~x49 +1 x19 ~x49 +1 x20 ~x49 +1 x21 ~x49 +1 x22 ~x49 +1 x23 ~x49 +1 x27 ~x49 +1 x29 ~x49 +1 x30 ~x49 +1 x31 ~x49 +1 x35 ~x49 +1 x36 ~x49 +1 x38 ~x49 +1 x41 ~x49 +1 x42 ~x49 +1 x45 ~x49 +1 ~x49 x50 +1 x49 >= 1 ;
+1 x1 ~x50 +1 x2 ~x50 +1 x8 ~x50 +1 x9 ~x50 +1 x10 ~x50 +1 x12 ~x50 +1 x13 ~x50 +1 x15 ~x50 +1 x16 ~x50 +1 x17 ~x50 +1 x19 ~x50 +1 x20 ~x50 +1 x23 ~x50 +1 x24 ~x50 +1 x25 ~x50 +1 x28 ~x50 +1 x29 ~x50 +1 x30 ~x50 +1 x32 ~x50 +1 x34 ~x50 +1 x38 ~x50 +1 x39 ~x50 +1 x46 ~x50 +1 x48 ~x50 +1 x49 ~x50 +1 x50 >= 1 ;
